[ti. 04. april 18:12:45 +0200 2023]  ./input/alternate_g_np/50-6-2.gcc
Set parameter Username
Academic license - for non-commercial use only - expires 2024-03-28
Set parameter TimeLimit to value 1800
Set parameter PreCrush to value 1
Set parameter LazyConstraints to value 1
Gurobi Optimizer version 10.0.1 build v10.0.1rc0 (linux64)

CPU model: AMD Ryzen 9 5950X 16-Core Processor, instruction set [SSE2|AVX|AVX2]
Thread count: 16 physical cores, 32 logical processors, using up to 32 threads

Optimize a model with 54 rows, 250 columns and 650 nonzeros
Model fingerprint: 0x3f7ff542
Variable types: 0 continuous, 250 integer (250 binary)
Coefficient statistics:
  Matrix range     [1e+00, 1e+00]
  Objective range  [1e+00, 1e+02]
  Bounds range     [1e+00, 1e+00]
  RHS range        [1e+00, 1e+00]
Presolve time: 0.00s
Presolved: 54 rows, 250 columns, 650 nonzeros
Variable types: 0 continuous, 250 integer (250 binary)

Root relaxation: objective 2.236000e+03, 4 iterations, 0.00 seconds (0.00 work units)

    Nodes    |    Current Node    |     Objective Bounds      |     Work
 Expl Unexpl |  Obj  Depth IntInf | Incumbent    BestBd   Gap | It/Node Time

     0     0 2236.00000    0    4          - 2236.00000      -     -    0s
     0     0 2236.00000    0    6          - 2236.00000      -     -    0s
     0     0 2236.00000    0    -          - 2236.00000      -     -    0s
     0     0 2236.00000    0    -          - 2236.00000      -     -    0s
     0     0 2236.00000    0    8          - 2236.00000      -     -    0s
     0     0 2236.00000    0    -          - 2236.00000      -     -    0s
     0     0 2236.00000    0   12          - 2236.00000      -     -    0s
     0     0 2236.00000    0    6          - 2236.00000      -     -    0s
     0     2 2236.00000    0    6          - 2236.00000      -     -    0s
H    1     2                    2227.0000000 2236.00000  0.40%   0.0    0s
*    9     8               3    2236.0000000 2236.00000  0.00%   3.9    0s

Cutting planes:
  User: 15
  Lazy constraints: 25

Explored 12 nodes (70 simplex iterations) in 0.01 seconds (0.01 work units)
Thread count was 32 (of 32 available processors)

Solution count 2: 2236 2227 

Optimal solution found (tolerance 1.00e-04)
Best objective 2.236000000000e+03, best bound 2.236000000000e+03, gap 0.0000%

User-callback calls 178, time in user-callback 0.00 sec
Minimal separator inequalities added: 46
Indegree inequalities added: 0
Passed solution check
[ti. 04. april 18:12:45 +0200 2023]  done

